30 32
10 437
28 249
18 10
4 237
29 602
28 992
15 104
18 985
18 627
5 328
21 682
15 912
10 923
31 463
5 967
2 732
20 346
13 894
14 237
22 383
24 575
20 769
25 892
26 129
13 471
28 941
2 933
13 699
1 776
23 891
